// Relaxation stage for case_0001_field_m005mT_freq_005GHz.
OutputFormat = OVF2_TEXT

nx := 256
ny := 64
nz := 1
Lx := 768e-9
Ly := 192e-9
Lz := 2e-9
SetGridSize(nx, ny, nz)
SetCellSize(Lx/nx, Ly/ny, Lz/nz)
SetGeom(Rect(Lx, Ly))

Msat = 800e3
Aex = 13e-12
alpha = 0.01

B0 := -0.005
B_ext = Vector(B0, 0, 0)
m = Uniform(1, 0, 0)

TableAdd(m)
TableAdd(B_ext)
TableAdd(E_total)
TableAdd(MaxAngle)
TableAutoSave(5e-12)

Relax()
SaveAs(m, "m_relaxed.ovf")
SaveAs(B_eff, "B_eff_relaxed.ovf")
TableSave()
